p tdp 49 94
44 49
25 41
20 22
21 25
30 31
5 36
23 42
47 48
18 45
9 31
1 39
5 24
6 24
26 37
11 43
9 19
8 10
24 26
1 38
11 17
5 30
8 13
29 39
35 42
3 34
3 35
7 16
33 45
27 32
2 44
27 43
15 19
12 46
20 39
25 43
45 48
29 40
4 5
10 33
12 41
6 14
12 37
7 47
22 32
2 38
23 28
10 42
16 26
2 22
35 40
9 11
13 18
15 20
17 48
36 37
3 46
18 29
42 48
13 16
1 22
7 43
8 18
18 48
13 22
12 45
2 14
32 34
25 44
9 45
10 46
9 39
2 42
10 25
45 49
16 49
17 31
18 36
6 43
12 31
4 13
22 41
3 5
1 42
40 44
22 34
8 37
21 49
22 26
6 45
41 47
41 44
17 20
1 32
25 49
